p cnf 16 192
-4 -7 -9 -12 0
-1 -13 -15 -16 0
-1 -4 -9 -12 0
-1 -4 -9 -13 0
-3 -4 -7 -9 0
-4 -5 -7 -9 0
-4 -7 -9 -13 0
-3 -7 -15 -16 0
-4 -7 -12 -15 0
-2 -4 -7 -12 0
-4 -7 -8 -12 0
-4 -7 -12 -17 0
-4 -7 -12 -22 0
-7 -13 -16 -22 0
-7 -9 -12 -16 0
-2 -7 -12 -16 0
-7 -8 -12 -16 0
-7 -12 -16 -17 0
-7 -12 -16 -22 0
-7 -12 -15 -16 0
-1 -2 -12 -16 0
-12 -15 -16 -19 0
-4 -9 -12 -23 0
-4 -9 -12 -19 0
-9 -12 -16 -23 0
-1 -9 -12 -16 0
-9 -12 -16 -19 0
-2 -12 -16 -23 0
-4 -8 -12 -19 0
-1 -4 -12 -17 0
-1 -4 -12 -22 0
-1 -2 -4 -12 0
-1 -4 -12 -15 0
-1 -13 -16 -22 0
-1 -8 -12 -16 0
-1 -12 -16 -17 0
-1 -12 -16 -22 0
-1 -12 -15 -16 0
-1 -4 -8 -12 0
-2 -4 -12 -23 0
-4 -12 -15 -23 0
-13 -15 -16 -23 0
-12 -15 -16 -23 0
-8 -12 -16 -23 0
-8 -12 -16 -19 0
-12 -16 -17 -23 0
-4 -12 -17 -19 0
-2 -12 -16 -19 0
-12 -16 -17 -19 0
-12 -16 -19 -22 0
-4 -12 -22 -23 0
-12 -16 -22 -23 0
-4 -8 -12 -23 0
-4 -12 -17 -23 0
-2 -4 -12 -19 0
-4 -12 -15 -19 0
-4 -12 -19 -22 0
-3 -4 -8 -19 0
-2 -4 -7 -13 0
-2 -4 -5 -7 0
-4 -5 -7 -15 0
-4 -5 -7 -8 0
-4 -7 -8 -13 0
-3 -4 -7 -8 0
-2 -3 -4 -7 0
-3 -4 -7 -17 0
-3 -4 -7 -22 0
-4 -7 -13 -17 0
-4 -7 -13 -22 0
-4 -5 -7 -17 0
-4 -5 -7 -22 0
-3 -4 -7 -15 0
-4 -7 -13 -15 0
-2 -5 -7 -16 0
-7 -9 -13 -16 0
-7 -13 -15 -16 0
-5 -7 -15 -16 0
-5 -7 -9 -16 0
-3 -7 -8 -16 0
-3 -7 -16 -17 0
-3 -7 -16 -22 0
-3 -7 -9 -16 0
-2 -3 -7 -16 0
-7 -13 -16 -17 0
-2 -7 -13 -16 0
-7 -8 -13 -16 0
-5 -7 -16 -17 0
-5 -7 -8 -16 0
-5 -7 -16 -22 0
-13 -15 -16 -19 0
-9 -13 -16 -19 0
-9 -13 -16 -23 0
-1 -9 -13 -16 0
-2 -13 -16 -19 0
-1 -8 -13 -16 0
-1 -13 -16 -17 0
-1 -2 -4 -13 0
-1 -2 -13 -16 0
-13 -16 -22 -23 0
-2 -4 -13 -23 0
-2 -13 -16 -23 0
-8 -13 -16 -19 0
-13 -16 -17 -19 0
-4 -13 -19 -22 0
-13 -16 -19 -22 0
-13 -16 -17 -23 0
-4 -8 -13 -23 0
-8 -13 -16 -23 0
-2 -3 -16 -23 0
-1 -5 -9 -16 0
-1 -3 -9 -16 0
-1 -3 -15 -16 0
-1 -5 -15 -16 0
-1 -2 -3 -16 0
-1 -2 -5 -16 0
-1 -4 -5 -8 0
-1 -5 -8 -16 0
-1 -3 -16 -17 0
-1 -3 -4 -22 0
-1 -3 -16 -22 0
-1 -5 -16 -17 0
-1 -4 -5 -22 0
-1 -5 -16 -22 0
-1 -3 -8 -16 0
-2 -3 -16 -19 0
-5 -15 -16 -23 0
-4 -5 -15 -19 0
-5 -9 -16 -19 0
-5 -15 -16 -19 0
-2 -5 -16 -23 0
-2 -4 -5 -19 0
-2 -5 -16 -19 0
-5 -8 -16 -23 0
-3 -16 -17 -19 0
-3 -4 -19 -22 0
-3 -16 -19 -22 0
-3 -8 -16 -19 0
-3 -16 -22 -23 0
-3 -4 -9 -23 0
-3 -9 -16 -23 0
-3 -16 -17 -23 0
-4 -5 -22 -23 0
-5 -16 -19 -22 0
-5 -16 -17 -19 0
-4 -5 -8 -19 0
-5 -8 -16 -19 0
-5 -16 -22 -23 0
-5 -9 -16 -23 0
-4 -5 -17 -23 0
-5 -16 -17 -23 0
-3 -8 -16 -23 0
-3 -4 -15 -23 0
-3 -15 -16 -19 0
-3 -9 -16 -19 0
-3 -15 -16 -23 0
-3 -4 -17 -23 0
-1 -2 -3 -4 0
-3 -4 -9 -19 0
-4 -9 -13 -19 0
-4 -13 -15 -19 0
-3 -4 -15 -19 0
-2 -4 -13 -19 0
-2 -3 -4 -19 0
-3 -4 -17 -19 0
-1 -4 -13 -17 0
-1 -4 -5 -17 0
-4 -5 -9 -19 0
-4 -13 -17 -19 0
-4 -5 -17 -19 0
-4 -5 -19 -22 0
-4 -8 -13 -19 0
-4 -9 -13 -23 0
-4 -5 -9 -23 0
-1 -4 -5 -9 0
-1 -3 -4 -9 0
-3 -4 -8 -23 0
-1 -3 -4 -17 0
-1 -3 -4 -15 0
-1 -4 -8 -13 0
-1 -3 -4 -8 0
-3 -4 -22 -23 0
-2 -3 -4 -23 0
-4 -13 -17 -23 0
-4 -13 -15 -23 0
-1 -4 -13 -22 0
-1 -4 -13 -15 0
-1 -4 -5 -15 0
-1 -2 -4 -5 0
-4 -5 -8 -23 0
-4 -5 -15 -23 0
-2 -4 -5 -23 0
-4 -13 -22 -23 0
